SCIP version 5.0.0 [precision: 8 byte] [memory: block] [mode: optimized] [LP solver: NONE] [GitHash: 3bbd232]
Copyright (C) 2002-2017 Konrad-Zuse-Zentrum fuer Informationstechnik Berlin (ZIB)

External codes: 
  Readline EditLine w  GNU library for command line editing (gnu.org/s/readline)
  CppAD 20160000.1     Algorithmic Differentiation of C++ algorithms developed by B. Bell (www.coin-or.org/CppAD)
  ZLIB 1.2.5           General purpose compression library by J. Gailly and M. Adler (zlib.net)
  GMP 6.1.2            GNU Multiple Precision Arithmetic Library developed by T. Granlund (gmplib.org)

user parameter file <scip.set> not found - using default parameters

read problem <../../Split_data/output/biodeg/5/3_sample_biodeg.logreg>
============

File name	:	../../Split_data/output/biodeg/5/3_sample_biodeg.logreg
Problem name 	:	3_sample_biodeg
Number of data	:	844
Number of var	:	41
The given data has linear independence

[dim=1] time: 0.029759
[dim=2] time: 0.059189
[dim=3] time: 0.100336
[dim=4] time: 0.137626
[dim=5] time: 0.168032
[dim=6] time: 0.196496
[dim=7] time: 0.225413
[dim=8] time: 0.257603
[dim=9] time: 0.284561
[dim=10] time: 0.310399
[dim=11] time: 0.338773
[dim=12] time: 0.364758
[dim=13] time: 0.383408
[dim=14] time: 0.401469
[dim=15] time: 0.419935
[dim=16] time: 0.43776
[dim=17] time: 0.456443
[dim=18] time: 0.476214
[dim=19] time: 0.491846
[dim=20] time: 0.534765
[dim=21] time: 0.550931
[dim=22] time: 0.56707
[dim=23] Time of forward = 0.583464sec.
AIC: 546.554
k: 22

[dim=41] time: 0.150374
[dim=40] time: 0.223522
[dim=39] time: 0.278348
[dim=38] time: 0.340178
[dim=37] time: 0.388873
[dim=36] time: 0.444484
[dim=35] time: 0.498345
[dim=34] time: 0.5973
[dim=33] time: 0.640677
[dim=32] time: 0.676115
[dim=31] time: 0.716202
[dim=30] time: 0.753997
[dim=29] time: 0.790011
[dim=28] time: 0.819577
[dim=27] time: 0.859733
[dim=26] time: 0.905457
[dim=25] time: 0.931215
[dim=24] time: 0.95726
[dim=23] time: 0.983665
[dim=22] Time of backward = 1.00904sec.
AIC: 529.778
k: 23
